LengthSchedulingHorizon=5231;
nAttributes=5;
SetupCosts=[[0, 0, 0, 0, 0], [3, 3, 3, 3, 3], [3, 3, 3, 3, 3], [3, 3, 3, 3, 3], [3, 3, 3, 3, 3], [3, 3, 3, 3, 3]];
SetupTimes=[[0, 0, 0, 0, 0], [1, 1, 1, 1, 1], [1, 1, 1, 1, 1], [1, 1, 1, 1, 1], [1, 1, 1, 1, 1], [1, 1, 1, 1, 1]];
nMachines=2;
MinCap=[0, 0];
MaxCap=[15, 10];

initState=[3, 3];
nShifts=3;
ShiftStartTimes = [[1768, 3013, 4738], [0, 3164, 5135]];
ShiftEndTimes = [[2357, 4079, 5117], [0, 4675, 5164]];
nJobs=25;
EligibleMachines = [{1, 2}, {1}, {2}, {2}, {1, 2}, {2}, {1}, {2}, {2}, {1, 2}, {1, 2}, {1, 2}, {2}, {1, 2}, {1, 2}, {2}, {1}, {1, 2}, {1, 2}, {1}, {1}, {2}, {1}, {1, 2}, {1, 2}];
EarliestStart=[10, 110, 96, 94, 85, 40, 99, 39, 115, 110, 56, 20, 40, 63, 33, 92, 17, 36, 55, 96, 47, 51, 64, 103, 106];
LatestEnd=[39, 539, 480, 102, 208, 326, 559, 63, 156, 258, 187, 185, 202, 490, 229, 128, 192, 150, 163, 101, 73, 387, 546, 368, 107];
MinTime=[11, 98, 84, 2, 65, 66, 96, 7, 14, 67, 54, 44, 48, 86, 74, 9, 64, 36, 69, 3, 6, 73, 97, 80, 1];
MaxTime=[30, 99, 89, 7, 77, 93, 99, 12, 60, 97, 90, 81, 99, 98, 77, 94, 88, 56, 92, 86, 42, 73, 100, 85, 92];
JobSize=[4, 5, 5, 1, 4, 2, 5, 3, 3, 2, 3, 3, 2, 3, 3, 4, 1, 5, 4, 1, 4, 5, 5, 4, 1];
Attribute=[3, 1, 1, 3, 2, 3, 3, 4, 1, 2, 5, 4, 2, 4, 3, 4, 3, 3, 1, 1, 1, 2, 1, 2, 2];

upper_bound_integer_objective=6375;
mult_factor_total_runtime=2;
mult_factor_finished_toolate=102;
mult_factor_total_setuptimes=0;
mult_factor_total_setupcosts=17;
running_time_bound=1254;
min_duration=1;
max_duration=98;
max_setup_time=1;
max_setup_cost=3;
